BEGIN IONS
ID=CNP0131718
PEPMASS=561.3603
SMILES=O=C(OCCCC1=CC=C2OC(=CC2=C1)C=3C=CC=4OCOC4C3)CCCCCCCC=CCCCCCCCC
ENERGY
279.10157 26.78
295.09649 14.74
297.11214 30.84
531.34689 11.6
561.35745 100.0
ENERGY1
43.05423 8.74
57.06988 14.04
95.08553 11.39
137.09609 10.16
137.13248 17.09
139.11174 27.73
237.25768 10.49
247.24203 9.65
251.07027 20.83
253.08592 9.98
265.08592 13.37
279.10157 74.81
295.09649 68.13
297.11214 88.25
353.13835 7.66
381.16965 19.64
417.20604 9.38
419.22169 8.71
421.20095 12.94
433.20095 12.67
435.2166 33.04
471.25299 8.06
485.26864 9.11
499.28429 7.85
501.29994 9.82
515.31559 9.63
519.3105 7.95
531.34689 25.03
543.34689 54.06
559.3418 21.41
561.35745 100.0
ENERGY2
81.06988 1.77
137.13248 2.6
139.11174 1.73
205.06479 2.83
251.07027 4.16
251.10666 1.52
253.08592 4.06
263.07027 3.34
265.08592 3.43
277.08592 6.34
279.10157 100.0
281.11722 33.61
295.09649 3.39
297.11214 4.1
435.2166 2.71
559.3418 4.44
561.35745 2.3
END IONS
