BEGIN IONS
ID=CNP0223389
PEPMASS=561.3603
SMILES=O=C(OCC(C=1C(=O)C2=CC=C3C(C=CC=C3C)=C2C(=O)C1O)C)CCCCCCCC=CCCCCCCCC
ENERGY
265.08592 2.2
277.08592 3.94
279.10157 42.26
281.11722 9.87
283.13287 2.06
283.26316 3.02
285.14852 9.8
287.16417 9.66
297.11214 7.23
543.34689 3.42
561.35745 100.0
ENERGY1
57.06988 5.96
95.08553 4.57
135.11683 5.01
137.09609 5.99
137.13248 5.94
139.11174 13.43
139.14813 10.57
149.13248 2.62
151.14813 2.78
197.05971 2.69
239.07027 6.82
247.24203 5.49
251.10666 9.73
259.20564 2.83
265.25259 7.12
267.10157 2.62
277.08592 5.64
279.10157 100.0
281.11722 10.69
285.14852 2.99
287.16417 2.84
297.11214 19.13
305.28389 4.63
319.26316 2.97
321.27881 2.44
421.20095 2.98
435.2166 8.63
437.23225 3.3
543.34689 5.32
559.3418 4.78
561.35745 10.47
ENERGY2
43.05423 2.89
85.06479 2.45
169.06479 7.97
197.05971 4.01
239.07027 2.4
261.09101 3.16
263.07027 9.29
263.10666 4.91
265.08592 6.11
279.10157 100.0
281.11722 71.96
285.14852 4.8
287.16417 3.13
435.2166 2.24
END IONS
