BEGIN IONS
ID=CNP0478379
PEPMASS=575.3763
SMILES=O=C(O)C(N(C)C1CC(C=2C=CC=C(F)C2)C(CN3CCC(C4=CC(=NN4CC)CC=5C=CC=CC5)CC3)C1)C(C)C
ENERGY
444.28095 3.05
475.32315 7.92
529.3701 6.54
547.34428 6.87
557.36502 4.03
575.37558 100.0
ENERGY1
84.08078 17.1
91.05423 38.79
93.06988 6.31
132.10191 3.79
206.13395 6.23
383.26055 7.55
415.2544 4.01
416.24965 13.67
417.27005 5.56
418.2653 5.51
442.2653 11.41
444.28095 45.16
445.2762 15.07
446.2966 10.91
447.29185 8.88
450.3279 5.28
471.29185 5.57
473.3075 17.13
475.32315 42.46
501.3388 5.2
515.30683 10.96
517.32248 13.88
519.33813 7.07
523.36943 5.78
529.3701 17.05
531.38575 3.97
532.33338 6.48
539.35445 4.55
547.34428 9.79
557.36502 9.79
575.37558 100.0
ENERGY2
65.03858 8.52
67.05423 3.33
81.06988 2.75
84.08078 4.33
91.05423 100.0
93.06988 10.42
95.06037 4.1
97.10118 15.68
98.09643 2.14
99.11683 5.52
157.07602 7.2
185.10732 4.33
187.12297 3.46
225.13862 3.78
227.15428 4.4
258.16525 2.05
260.1809 9.5
289.20745 4.15
308.20203 1.99
317.23875 2.27
343.2544 5.04
345.27005 2.38
377.25988 2.21
379.27553 1.69
416.24965 2.72
430.2653 2.46
432.28095 1.83
455.33805 1.66
517.32248 1.89
549.35993 3.86
575.37558 9.54
END IONS
