BEGIN IONS
ID=CNP0003161
PEPMASS=575.3763
SMILES=O=C(OC1CCC2(C)C3C(=O)C=C4C5C(C)C(C)CCC5(C(=O)O)CCC4(C)C3(C)CCC2C1(C)C)C=6C=CC=CC6
ENERGY
105.03349 10.54
407.33084 22.04
409.34649 8.57
447.28937 13.92
451.32067 21.06
453.33632 100.0
575.3731 57.99
ENERGY1
77.03858 5.6
79.05423 7.94
105.03349 55.84
123.04406 5.74
133.10118 3.68
155.10666 7.8
165.09101 6.21
299.16417 7.49
311.20056 7.49
329.21112 3.59
367.22677 4.22
389.21112 6.62
391.22677 3.79
393.24242 3.69
395.25807 4.04
397.27372 3.54
405.31519 31.11
407.33084 100.0
409.27372 3.93
409.34649 14.13
435.28937 5.22
447.28937 10.16
449.30502 3.99
453.33632 39.4
491.2792 3.92
519.3105 3.77
529.36762 23.91
547.37819 5.35
557.36254 8.79
573.35745 4.36
575.3731 54.24
ENERGY2
77.03858 23.47
79.05423 25.55
83.08553 21.94
85.10118 18.77
93.06988 25.0
105.03349 41.55
119.08553 76.05
121.10118 28.41
123.11683 85.95
133.10118 45.37
135.11683 22.25
137.13248 34.4
151.14813 21.66
155.10666 47.89
165.09101 22.59
167.10666 24.81
169.12231 27.08
179.10666 19.15
267.17434 18.76
283.20564 23.25
285.22129 17.37
299.16417 21.92
393.24242 18.46
403.29954 34.57
405.31519 16.39
435.28937 20.94
447.28937 100.0
449.30502 27.23
451.32067 60.51
453.33632 19.11
575.3731 37.73
END IONS
