BEGIN IONS
ID=CNP0010777
PEPMASS=575.3763
SMILES=O=C(OC1CCC2(C)C(C(=O)CC3(C)C2CC=C4C5C(C)C(C)CCC5(C(=O)O)CCC43C)C1(C)C)C=6C=CC=CC6
ENERGY
105.03349 15.86
193.12231 4.55
243.13796 4.33
247.16926 14.01
301.21621 4.34
369.24242 4.4
397.27372 5.36
405.31519 5.36
407.33084 22.6
409.34649 8.39
433.31011 7.99
435.32576 18.03
447.28937 12.21
451.32067 19.01
453.33632 100.0
529.36762 4.54
557.36254 82.76
575.3731 91.68
ENERGY1
79.05423 11.05
83.08553 8.04
105.03349 35.96
109.10118 9.94
123.11683 13.03
163.07536 11.47
233.15361 13.58
241.12231 14.3
243.13796 11.39
285.18491 10.23
299.20056 10.01
367.22677 9.8
389.21112 17.67
391.22677 14.09
393.24242 17.94
395.25807 14.16
397.27372 10.13
403.22677 20.25
405.24242 33.13
405.31519 31.99
407.33084 100.0
409.27372 21.08
409.34649 11.92
435.32576 9.97
447.28937 14.43
453.33632 35.03
529.36762 26.86
533.32615 7.83
533.36254 14.9
557.36254 26.86
575.3731 63.01
ENERGY2
79.05423 45.34
81.06988 24.52
93.06988 31.05
105.03349 40.67
113.09609 16.85
119.08553 31.68
121.10118 42.26
123.11683 100.0
133.10118 17.0
135.11683 20.99
137.13248 26.48
147.08044 16.84
149.09609 33.49
151.11174 23.37
153.12739 18.05
163.11174 20.2
167.10666 24.29
169.12231 26.45
215.14304 19.26
231.13796 17.93
235.16926 29.45
241.12231 21.75
269.18999 43.67
271.20564 25.92
283.20564 23.08
299.20056 33.57
301.21621 57.54
303.23186 24.11
447.28937 43.22
449.30502 16.83
575.3731 22.91
END IONS
