BEGIN IONS
ID=CNP0067817
PEPMASS=449.2239
SMILES=O=C(NCC1C=C(C)C(CC(=O)NCC2=CC=C(F)C=C2)CC1C(C)C)C=3OC=CC3
ENERGY
95.01276 13.46
109.0448 16.58
124.0393 6.21
161.13248 4.72
163.14813 5.54
166.06627 6.19
272.14452 14.6
274.16017 57.89
276.17582 8.36
288.17582 6.69
302.17507 5.09
304.20712 15.77
316.20712 100.0
385.1922 14.29
427.23915 68.07
ENERGY1
44.01309 5.26
58.02874 6.22
69.03349 7.03
94.02874 5.14
95.01276 39.48
109.0448 100.0
111.06045 4.53
112.0393 7.81
124.0393 4.33
126.05495 5.97
150.07135 8.62
152.05062 4.74
166.06627 15.15
168.08192 8.85
193.15869 6.39
232.13321 5.15
260.16451 4.19
272.14452 16.68
274.16017 39.23
274.18016 4.13
276.17582 11.12
300.17582 4.62
302.17507 5.37
304.20712 11.33
312.17582 6.36
316.20712 34.95
357.1609 4.16
371.17655 22.06
407.23292 6.95
409.22858 9.89
427.23915 61.52
ENERGY2
44.01309 7.44
58.02874 4.27
69.03349 7.98
81.03349 5.07
95.01276 100.0
97.02841 4.38
101.05971 4.59
109.0448 96.56
111.06045 5.87
112.0393 5.7
124.0557 4.6
132.1183 5.58
137.13248 6.27
149.13248 11.89
151.14813 9.24
161.13248 5.16
162.12773 4.23
163.14813 13.96
164.14338 4.94
165.16378 5.68
178.15903 15.43
180.17468 8.64
208.16959 4.76
274.18016 4.33
300.17582 4.42
304.19072 5.04
333.23367 4.59
357.1609 11.15
359.17655 4.11
411.20785 4.32
427.23915 16.49
END IONS
