BEGIN IONS
ID=CNP0204784
PEPMASS=449.2239
SMILES=O=C(NC1C(C=2C=CC=CC2)N(C(=O)CCCCC)CCC1(O)C)C3=CC=C(F)C=C3
ENERGY
329.16598 48.24
427.23915 100.0
ENERGY1
43.05423 3.6
71.08553 8.89
79.05423 5.88
81.06988 3.99
99.08044 6.81
123.02407 43.5
188.10699 14.77
190.12264 15.74
192.13829 9.44
198.09248 4.84
242.09757 5.41
246.14886 3.25
260.16451 9.16
270.18524 6.52
288.19581 26.5
311.15542 75.67
312.13943 3.47
329.16598 95.37
399.20785 4.07
409.22858 12.55
425.2235 8.31
427.23915 100.0
ENERGY2
43.05423 75.4
44.04948 12.06
55.05423 20.52
57.06988 26.12
67.05423 26.84
71.08553 28.19
77.03858 16.14
79.05423 30.8
81.06988 13.4
83.08553 16.61
85.10118 9.74
95.02915 96.78
97.0448 71.37
101.0761 11.29
103.09176 10.18
123.02407 42.77
125.03972 24.0
188.10699 9.89
190.12264 100.0
192.13829 19.64
218.11756 19.14
220.13321 44.64
311.15542 29.04
327.15033 11.11
329.16598 21.02
345.21727 8.9
379.20162 11.58
407.23292 10.89
409.22858 13.63
425.2235 13.88
427.23915 15.85
END IONS
