BEGIN IONS
ID=CNP0249108
PEPMASS=449.2239
SMILES=O=C(NC1C(C=2C=CC=CC2)N(C(=O)C(CC)CC)CCC1(O)C)C3=CC=C(F)C=C3
ENERGY
329.16598 6.01
427.23915 100.0
ENERGY1
71.08553 3.96
81.06988 4.0
83.08553 2.01
91.05423 2.8
99.08044 3.04
123.02407 26.01
190.12264 3.75
198.09248 3.42
242.09757 2.05
258.14886 5.5
260.16451 8.09
270.18524 5.74
288.19581 28.16
298.12378 2.53
311.15542 6.09
329.16598 8.21
331.20162 1.94
349.1922 2.06
381.19728 2.62
397.1922 4.16
399.20785 5.27
409.22858 15.31
427.23915 100.0
ENERGY2
41.03858 13.19
43.05423 10.98
71.04914 31.59
71.08553 23.44
77.03858 10.94
79.05423 15.51
81.06988 9.15
83.08553 15.3
85.10118 15.13
95.02915 88.86
97.0448 100.0
123.02407 36.92
125.03972 17.78
190.12264 33.58
192.13829 10.2
216.10191 10.82
218.11756 27.75
224.10813 10.14
258.14886 41.32
260.16451 62.37
262.18016 28.33
270.18524 10.05
311.15542 18.82
329.16598 12.5
339.15033 20.95
357.1609 12.17
379.20162 10.64
397.1922 12.83
399.20785 10.72
411.20785 9.76
427.23915 14.56
END IONS
