BEGIN IONS
ID=CNP0016115
PEPMASS=449.2239
SMILES=O=C(NC1C(C=2C=CC=CC2)N(CC=3C=CC=C(OC)C3)CCC1(O)C)C4=CC=C(F)C=C4
ENERGY
310.18016 23.27
449.2235 100.0
ENERGY1
65.00219 3.47
79.01784 3.16
89.00219 4.68
91.05423 3.88
121.06479 13.92
123.02407 100.0
292.16959 4.31
310.18016 4.65
311.15542 3.72
431.21293 7.15
449.2235 10.34
ENERGY2
65.03858 11.7
77.03858 17.98
79.05423 4.62
83.08553 7.18
91.05423 39.89
93.06988 3.58
94.99277 5.76
95.02915 100.0
97.00842 4.19
97.0448 19.09
101.0761 6.08
103.09176 5.17
121.06479 23.26
123.02407 48.67
136.07569 4.5
150.09134 6.52
152.05062 10.48
190.12264 10.34
252.13829 5.47
284.10813 4.39
309.19614 5.4
311.15542 3.93
316.17073 4.02
365.18597 4.43
367.20162 4.57
405.21727 6.18
423.20785 9.11
429.21727 4.22
431.21293 4.01
447.20785 4.16
449.2235 11.4
END IONS
