BEGIN IONS
ID=CNP0016767
PEPMASS=449.2239
SMILES=O=C(NC1C(C=2C=CC=CC2)N(CC3=CC=C(OC)C=C3)CCC1(O)C)C4=CC=C(F)C=C4
ENERGY
123.02407 22.0
310.18016 20.43
449.2235 100.0
ENERGY1
65.00219 3.41
89.00219 4.6
91.05423 3.61
121.06479 8.14
123.02407 100.0
292.16959 3.81
310.18016 5.74
431.21293 7.7
449.2235 11.34
ENERGY2
65.03858 8.75
67.05423 8.89
77.03858 53.1
79.05423 9.53
91.05423 23.04
94.99277 5.9
95.02915 100.0
95.08553 3.67
97.00842 4.3
97.0448 13.51
101.0761 5.95
103.09176 5.06
121.06479 37.24
123.02407 43.53
136.07569 4.03
190.12264 9.29
208.13321 15.86
224.10813 4.22
226.12264 5.03
242.09757 8.83
300.13943 3.62
311.15542 4.85
327.2067 3.45
365.18597 4.97
367.20162 5.12
381.19728 9.17
405.21727 7.89
429.21727 4.13
431.21293 4.86
447.20785 6.67
449.2235 14.42
END IONS
