BEGIN IONS
ID=CNP0340037
PEPMASS=449.2239
SMILES=O=C(NC1C(C=2C=CC=CC2)N(C(=O)CC(C)(C)C)CCC1(O)C)C3=CC=C(F)C=C3
ENERGY
123.02407 24.98
288.19581 18.97
311.15542 8.94
329.16598 20.5
427.23915 100.0
ENERGY1
55.05423 3.25
57.06988 4.1
65.00219 3.58
89.00219 4.83
123.02407 100.0
188.10699 9.22
190.12264 5.9
311.15542 45.19
329.16598 20.4
409.22858 5.62
427.23915 7.88
ENERGY2
55.05423 8.82
57.06988 78.67
71.08553 6.97
77.03858 16.86
83.08553 10.48
91.05423 7.29
94.99277 5.65
95.02915 100.0
97.0448 25.21
101.0761 6.32
123.02407 96.58
125.03972 8.31
186.09134 12.42
188.10699 15.43
190.12264 35.47
244.11322 7.59
288.19581 5.68
300.13943 5.65
309.15975 5.83
311.15542 21.08
327.15033 5.15
329.16598 10.13
343.20162 6.46
345.21727 6.67
369.19728 7.37
383.23292 5.99
401.2235 6.22
411.20785 8.09
427.23915 14.99
END IONS
