BEGIN IONS
ID=CNP0461712
PEPMASS=449.2239
SMILES=O=C(NC1CN(CC=2C=CC=CC2)CCCC1O)C3=CC=C(OCC4=CC=C(F)C=C4)C=C3
ENERGY
91.05423 11.95
449.2235 100.0
ENERGY1
89.03858 1.91
91.05423 100.0
109.0448 12.7
186.12773 3.19
203.15428 2.18
204.13829 10.91
229.06593 2.67
246.09248 1.84
258.09248 1.91
330.15 5.94
357.1609 2.12
371.17655 2.9
431.21293 6.3
449.2235 40.29
ENERGY2
65.03858 4.53
81.06988 3.84
91.05423 100.0
93.06988 7.08
97.10118 12.33
99.11683 3.89
109.0448 44.72
114.09134 3.74
125.03972 6.38
178.12264 5.34
186.12773 11.2
188.14338 12.84
204.13829 7.09
229.06593 5.71
423.20785 4.33
449.2235 14.14
END IONS
