BEGIN IONS
ID=CNP0014896
PEPMASS=449.2239
SMILES=FC1=CC=C(C=C1)CNC2C3OC(OC3)C(N4CCC(CC=5C=CC=CC5)CC4)C2O
ENERGY
409.22858 3.88
427.23915 100.0
ENERGY1
91.05423 11.86
109.0448 18.0
124.0557 3.52
174.12773 10.4
176.14338 6.93
286.18016 8.33
292.19072 3.3
302.17507 3.87
304.19072 5.31
331.20162 10.4
409.22858 9.01
427.23915 100.0
ENERGY2
81.06988 7.4
85.10118 11.25
91.05423 100.0
109.0448 44.89
115.09176 5.53
124.0557 36.61
140.03422 16.29
145.10118 13.71
150.07135 5.92
165.16378 5.95
168.08078 16.51
170.09643 5.61
172.11208 9.86
174.12773 7.89
184.11208 10.75
186.12773 9.78
188.14338 13.93
260.16451 9.32
262.18016 12.19
299.1754 7.24
317.18597 7.89
329.18597 5.35
331.20162 11.54
353.18597 12.86
383.17655 7.89
395.21293 7.43
397.1922 11.34
397.22858 22.79
399.24423 10.1
409.22858 21.1
427.23915 22.71
END IONS
