BEGIN IONS
ID=CNP0447842
PEPMASS=449.2239
SMILES=O=C(NC1CN(CC2=CC=C(F)C=C2)CCCC1O)C3=CC=C(OCC=4C=CC=CC4)C=C3
ENERGY
109.0448 26.93
449.2235 100.0
ENERGY1
91.05423 14.95
109.0448 100.0
111.06045 1.65
204.1183 2.24
211.07536 2.01
222.12887 8.2
310.14377 1.98
312.15942 2.55
339.17032 1.99
431.21293 5.48
449.2235 37.67
ENERGY2
83.02915 3.53
91.05423 57.21
97.10118 10.65
107.04914 5.33
109.0448 100.0
111.06045 5.35
112.07569 4.77
114.09134 5.9
115.09176 6.58
121.02841 5.57
123.04406 4.58
196.11322 3.79
204.1183 14.53
206.13395 21.66
211.07536 5.48
222.12887 9.21
224.14452 4.04
423.20785 6.41
449.2235 11.42
END IONS
