BEGIN IONS
ID=CNP0012740
PEPMASS=449.2239
SMILES=FC1=CC=C(C=C1)CN(CC2=CC=C(F)C=C2)CC3OC(CO)C(O)C3N4CCOCC4
ENERGY
216.12303 7.6
449.22464 100.0
ENERGY1
88.07569 8.82
109.0448 100.0
198.11247 11.64
202.10738 5.49
216.12303 33.58
218.13868 4.45
431.21408 14.26
447.20899 5.0
449.22464 58.85
ENERGY2
84.04439 9.32
86.06004 32.18
88.07569 52.81
109.0448 100.0
111.06045 25.54
115.09176 10.23
124.0557 13.42
136.0557 59.24
138.07135 47.91
152.087 34.66
174.11247 10.04
196.09682 10.05
200.12812 42.42
216.12303 9.65
218.13868 10.22
230.07758 7.76
232.09323 11.63
234.10888 11.54
246.10888 13.47
353.18711 13.54
359.19295 21.61
361.2086 10.97
375.17146 10.62
377.16713 8.08
387.17146 16.68
405.19843 10.06
405.21841 11.88
429.21841 11.6
449.22464 25.77
END IONS
