BEGIN IONS
ID=CNP0391269
PEPMASS=462.1716
SMILES=O=C1OC2=C(C(OCC(=O)NCCC=3C=CC=CC3F)=CC=4OC(C)(C)CCC42)C(=C1)C
ENERGY
123.06045 22.65
140.087 9.22
261.11214 10.1
440.18678 100.0
ENERGY1
89.03858 4.22
95.02915 3.92
103.05423 5.17
109.0448 28.94
111.06045 5.38
123.06045 58.43
138.07135 3.8
140.087 4.03
198.09248 3.82
261.11214 11.4
273.11214 27.48
275.12779 7.52
301.10705 3.92
344.14925 4.62
372.12418 3.7
382.10853 6.15
384.12418 7.48
396.18055 6.58
398.13983 19.61
400.15548 4.4
412.19186 6.43
420.18055 12.76
422.17621 19.22
424.15548 3.81
440.18678 100.0
ENERGY2
53.03858 11.84
57.0135 12.54
60.04439 11.56
72.04439 7.71
77.03858 8.26
89.03858 21.93
95.02915 15.32
97.0448 43.18
97.06479 7.7
103.05423 25.87
107.02915 36.54
109.0448 100.0
119.02915 6.88
120.08078 8.66
121.0448 26.3
123.06045 50.5
162.09134 14.56
203.03389 10.43
205.04954 6.85
249.14852 14.57
251.16417 9.98
259.09649 12.37
261.11214 11.69
273.11214 7.15
275.12779 10.49
318.1336 7.62
330.15 6.82
406.1649 14.25
424.15548 8.77
438.17113 6.93
440.18678 8.13
END IONS
