BEGIN IONS
ID=CNP0461527
PEPMASS=462.1716
SMILES=O=C(OCC)C1CCN(CC2=C(O)C=C(C=3C(=O)C(OC32)=CC4=CC=C(F)C=C4)C)CC1
ENERGY
283.0765 100.0
440.18678 89.95
ENERGY1
255.08158 6.75
265.06593 8.25
281.06085 2.71
283.0765 100.0
285.09215 3.57
440.18678 3.08
ENERGY2
69.03349 14.91
82.06513 20.54
84.08078 15.28
96.08078 23.35
97.06479 11.58
98.09643 10.72
99.08044 18.17
109.0448 23.41
112.07569 41.45
121.0448 23.07
124.07569 14.54
126.09134 17.1
128.0706 32.14
133.0448 10.45
137.03972 15.91
137.05971 14.14
147.02407 11.51
255.08158 13.01
267.08158 12.15
276.15942 12.25
283.0765 100.0
285.09215 66.25
298.0874 12.23
300.10305 12.05
310.0874 11.93
312.10305 26.52
326.1187 12.9
394.14491 20.08
410.13983 13.17
412.15548 40.52
440.18678 15.14
END IONS
