BEGIN IONS
ID=CNP0196334
PEPMASS=462.1716
SMILES=O=C(N)CN(C(=O)C1N(C(=O)C2=NC=CN=C2)CCC1NC(=O)NC3=CC=C(F)C=C3F)C
ENERGY
290.12477 7.58
307.15131 13.85
333.13058 8.47
374.10592 7.31
445.14304 23.16
462.16959 100.0
ENERGY1
44.01309 13.66
58.02874 26.38
71.06037 7.08
72.04439 41.47
87.05529 17.44
89.07094 9.35
107.02399 13.56
115.0502 8.18
130.04628 18.83
156.02555 14.69
191.09274 32.23
193.10839 14.87
199.11895 8.65
204.07675 7.2
219.08765 17.21
221.1033 25.23
248.1142 35.36
262.12985 15.65
264.1455 7.24
290.12477 100.0
307.15131 33.61
339.12632 16.72
346.11101 22.31
348.12666 25.85
374.10592 39.51
376.12157 6.97
444.15902 9.08
445.14304 8.77
462.16959 50.93
ENERGY2
40.01818 10.64
44.04948 12.92
52.01818 10.73
58.02874 32.23
70.02874 17.38
72.04439 29.48
81.04472 16.25
101.01973 16.88
107.02399 41.35
109.03964 18.05
130.04628 100.0
138.03497 16.07
156.02555 21.04
158.0412 11.38
174.06619 16.35
176.08184 15.3
179.09274 17.85
191.09274 17.73
217.072 25.5
219.08765 24.41
247.11895 11.32
327.12632 10.58
332.09536 13.01
334.11101 11.02
339.12632 52.69
374.10592 12.71
406.13214 13.14
408.14779 13.57
418.16336 12.02
435.15869 14.82
444.15902 12.37
END IONS
