BEGIN IONS
ID=CNP0005963
PEPMASS=462.1716
SMILES=O=C(C1=CC=C(Cl)C=C1)N2CC3N(CCOC3)C4(C2)CN(C4)C5CCC(F)(F)CC5
ENERGY
420.18486 8.22
440.19109 100.0
ENERGY1
138.99452 5.22
420.18486 11.08
440.19109 100.0
ENERGY2
100.07569 26.36
101.0761 40.86
110.9996 100.0
138.99452 57.7
145.04147 19.3
147.05712 24.35
155.11789 41.58
168.02107 51.52
172.09323 36.48
182.12879 36.64
203.13543 31.84
253.07383 26.59
273.1773 81.53
277.07383 22.34
278.10547 78.21
279.08948 57.18
286.155 41.25
304.12112 27.48
306.13677 20.5
340.17863 19.33
346.13168 21.71
348.14733 27.69
348.15181 32.04
354.19876 25.34
382.14922 35.5
396.16487 70.39
412.15979 39.84
420.18486 32.48
422.18052 39.74
438.17544 40.36
440.19109 40.57
END IONS
